3	3	220	243	227
375000	375000
0	0	0	50	50	50	2	1	1
0	193	0	50	243	50	1	2	2
0	193	50	50	243	100	0	3	3
3	1

220	243	227

0	50	1	50	1	50	1	1	10000	40000	40000	40000	0	0	

1	50	0	50	0	50	1	1	10000	40000	40000	40000	0	0	

2	50	0	50	1	50	1	1	10000	0	0	48	0	0	

